75
1 0 88
2 0 31
2 1 78
3 0 18
3 1 21
3 2 80
4 0 54
4 1 90
4 2 20
4 3 23
5 0 63
5 1 65
5 2 63
5 3 63
5 4 82
6 0 58
6 1 59
6 2 6
6 3 89
6 4 93
6 5 34
7 0 53
7 1 42
7 2 3
7 3 64
7 4 78
7 5 70
7 6 54
8 0 60
8 1 51
8 2 38
8 3 86
8 4 36
8 5 19
8 6 70
8 7 79
9 0 83
9 1 65
9 2 26
9 3 83
9 4 47
9 5 10
9 6 94
9 7 87
9 8 80
10 0 7
10 1 16
10 2 96
10 3 5
10 4 72
10 5 71
10 6 58
10 7 31
10 8 26
10 9 96
11 0 54
11 1 93
11 2 57
11 3 85
11 4 33
11 5 2
11 6 24
11 7 30
11 8 74
11 9 46
11 10 56
12 0 85
12 1 88
12 2 68
12 3 20
12 4 58
12 5 10
12 6 2
12 7 69
12 8 59
12 9 28
12 10 57
12 11 85
13 0 82
13 1 59
13 2 83
13 3 79
13 4 78
13 5 64
13 6 37
13 7 21
13 8 53
13 9 63
13 10 60
13 11 98
13 12 99
14 0 1
14 1 15
14 2 33
14 3 39
14 4 57
14 5 46
14 6 16
14 7 52
14 8 13
14 9 85
14 10 20
14 11 100
14 12 21
14 13 70
15 0 13
15 1 74
15 2 31
15 3 91
15 4 72
15 5 37
15 6 76
15 7 74
15 8 86
15 9 30
15 10 13
15 11 36
15 12 87
15 13 57
15 14 82
16 0 6
16 1 36
16 2 85
16 3 29
16 4 95
16 5 84
16 6 7
16 7 86
16 8 26
16 9 59
16 10 62
16 11 31
16 12 94
16 13 51
16 14 19
16 15 62
17 0 1
17 1 12
17 2 44
17 3 39
17 4 82
17 5 76
17 6 32
17 7 8
17 8 30
17 9 76
17 10 68
17 11 98
17 12 67
17 13 14
17 14 27
17 15 39
17 16 45
18 0 93
18 1 64
18 2 72
18 3 50
18 4 48
18 5 26
18 6 26
18 7 50
18 8 5
18 9 88
18 10 95
18 11 20
18 12 76
18 13 15
18 14 35
18 15 26
18 16 59
18 17 87
19 0 60
19 1 49
19 2 93
19 3 33
19 4 20
19 5 83
19 6 19
19 7 74
19 8 73
19 9 47
19 10 2
19 11 73
19 12 5
19 13 79
19 14 49
19 15 27
19 16 36
19 17 18
19 18 17
20 0 60
20 1 29
20 2 76
20 3 94
20 4 97
20 5 98
20 6 72
20 7 100
20 8 38
20 9 70
20 10 73
20 11 34
20 12 45
20 13 39
20 14 48
20 15 83
20 16 29
20 17 39
20 18 70
20 19 41
21 0 83
21 1 15
21 2 79
21 3 29
21 4 10
21 5 57
21 6 13
21 7 2
21 8 47
21 9 43
21 10 75
21 11 80
21 12 56
21 13 92
21 14 69
21 15 53
21 16 71
21 17 43
21 18 55
21 19 36
21 20 97
22 0 83
22 1 78
22 2 72
22 3 2
22 4 15
22 5 86
22 6 25
22 7 54
22 8 26
22 9 39
22 10 87
22 11 100
22 12 90
22 13 73
22 14 10
22 15 76
22 16 46
22 17 73
22 18 38
22 19 94
22 20 94
22 21 61
23 0 78
23 1 62
23 2 30
23 3 19
23 4 61
23 5 18
23 6 1
23 7 86
23 8 69
23 9 87
23 10 50
23 11 10
23 12 27
23 13 95
23 14 95
23 15 36
23 16 91
23 17 100
23 18 38
23 19 72
23 20 88
23 21 16
23 22 20
24 0 59
24 1 68
24 2 46
24 3 59
24 4 18
24 5 94
24 6 56
24 7 40
24 8 88
24 9 78
24 10 44
24 11 35
24 12 53
24 13 18
24 14 89
24 15 85
24 16 12
24 17 27
24 18 92
24 19 65
24 20 75
24 21 36
24 22 37
24 23 13
25 0 53
25 1 9
25 2 34
25 3 96
25 4 98
25 5 26
25 6 21
25 7 47
25 8 3
25 9 98
25 10 47
25 11 91
25 12 60
25 13 27
25 14 48
25 15 41
25 16 60
25 17 34
25 18 98
25 19 47
25 20 53
25 21 5
25 22 94
25 23 11
25 24 23
26 0 39
26 1 11
26 2 11
26 3 41
26 4 88
26 5 27
26 6 98
26 7 93
26 8 26
26 9 10
26 10 49
26 11 7
26 12 100
26 13 24
26 14 2
26 15 24
26 16 32
26 17 75
26 18 4
26 19 77
26 20 74
26 21 31
26 22 37
26 23 84
26 24 54
26 25 66
27 0 14
27 1 72
27 2 55
27 3 18
27 4 63
27 5 69
27 6 7
27 7 66
27 8 23
27 9 50
27 10 88
27 11 67
27 12 42
27 13 22
27 14 77
27 15 90
27 16 39
27 17 68
27 18 93
27 19 64
27 20 66
27 21 7
27 22 6
27 23 11
27 24 96
27 25 27
27 26 22
28 0 28
28 1 11
28 2 92
28 3 66
28 4 57
28 5 65
28 6 49
28 7 16
28 8 35
28 9 61
28 10 76
28 11 66
28 12 25
28 13 53
28 14 34
28 15 22
28 16 77
28 17 60
28 18 37
28 19 49
28 20 55
28 21 68
28 22 43
28 23 33
28 24 29
28 25 38
28 26 23
28 27 25
29 0 34
29 1 68
29 2 68
29 3 75
29 4 38
29 5 55
29 6 49
29 7 84
29 8 56
29 9 67
29 10 24
29 11 15
29 12 25
29 13 25
29 14 60
29 15 56
29 16 10
29 17 39
29 18 28
29 19 25
29 20 16
29 21 63
29 22 80
29 23 49
29 24 25
29 25 64
29 26 5
29 27 65
29 28 70
30 0 2
30 1 37
30 2 26
30 3 40
30 4 84
30 5 71
30 6 14
30 7 51
30 8 37
30 9 78
30 10 71
30 11 43
30 12 100
30 13 55
30 14 27
30 15 89
30 16 44
30 17 44
30 18 81
30 19 17
30 20 67
30 21 92
30 22 43
30 23 87
30 24 18
30 25 53
30 26 64
30 27 68
30 28 46
30 29 49
31 0 10
31 1 18
31 2 90
31 3 34
31 4 50
31 5 56
31 6 44
31 7 34
31 8 67
31 9 68
31 10 65
31 11 65
31 12 7
31 13 7
31 14 13
31 15 32
31 16 40
31 17 66
31 18 35
31 19 74
31 20 82
31 21 33
31 22 39
31 23 19
31 24 2
31 25 63
31 26 14
31 27 35
31 28 34
31 29 24
31 30 88
32 0 14
32 1 37
32 2 98
32 3 48
32 4 24
32 5 1
32 6 55
32 7 43
32 8 2
32 9 73
32 10 12
32 11 52
32 12 83
32 13 56
32 14 64
32 15 97
32 16 92
32 17 19
32 18 47
32 19 15
32 20 33
32 21 94
32 22 47
32 23 37
32 24 56
32 25 71
32 26 97
32 27 30
32 28 95
32 29 11
32 30 13
32 31 88
33 0 93
33 1 25
33 2 46
33 3 4
33 4 67
33 5 15
33 6 71
33 7 42
33 8 78
33 9 49
33 10 44
33 11 85
33 12 5
33 13 28
33 14 71
33 15 47
33 16 40
33 17 72
33 18 90
33 19 63
33 20 58
33 21 19
33 22 68
33 23 91
33 24 19
33 25 31
33 26 40
33 27 1
33 28 12
33 29 29
33 30 57
33 31 31
33 32 52
34 0 28
34 1 22
34 2 31
34 3 81
34 4 24
34 5 20
34 6 29
34 7 42
34 8 54
34 9 83
34 10 86
34 11 16
34 12 46
34 13 41
34 14 30
34 15 57
34 16 16
34 17 39
34 18 88
34 19 55
34 20 89
34 21 43
34 22 40
34 23 5
34 24 34
34 25 55
34 26 79
34 27 85
34 28 68
34 29 91
34 30 55
34 31 43
34 32 42
34 33 30
35 0 14
35 1 64
35 2 25
35 3 7
35 4 89
35 5 66
35 6 55
35 7 16
35 8 81
35 9 36
35 10 13
35 11 59
35 12 47
35 13 21
35 14 45
35 15 34
35 16 92
35 17 14
35 18 28
35 19 69
35 20 3
35 21 13
35 22 79
35 23 32
35 24 6
35 25 55
35 26 21
35 27 80
35 28 17
35 29 24
35 30 73
35 31 29
35 32 15
35 33 3
35 34 40
36 0 48
36 1 65
36 2 26
36 3 93
36 4 16
36 5 65
36 6 29
36 7 76
36 8 100
36 9 3
36 10 21
36 11 89
36 12 35
36 13 38
36 14 26
36 15 26
36 16 9
36 17 41
36 18 54
36 19 68
36 20 7
36 21 71
36 22 14
36 23 55
36 24 35
36 25 60
36 26 68
36 27 96
36 28 53
36 29 39
36 30 96
36 31 88
36 32 85
36 33 28
36 34 25
36 35 50
37 0 59
37 1 67
37 2 20
37 3 93
37 4 42
37 5 69
37 6 71
37 7 88
37 8 27
37 9 15
37 10 98
37 11 96
37 12 11
37 13 26
37 14 73
37 15 76
37 16 74
37 17 83
37 18 26
37 19 84
37 20 29
37 21 75
37 22 85
37 23 28
37 24 24
37 25 98
37 26 64
37 27 46
37 28 98
37 29 40
37 30 100
37 31 11
37 32 39
37 33 16
37 34 15
37 35 98
37 36 81
38 0 49
38 1 29
38 2 52
38 3 46
38 4 2
38 5 70
38 6 44
38 7 19
38 8 2
38 9 57
38 10 15
38 11 4
38 12 34
38 13 41
38 14 28
38 15 13
38 16 72
38 17 34
38 18 90
38 19 66
38 20 82
38 21 66
38 22 15
38 23 26
38 24 20
38 25 46
38 26 33
38 27 80
38 28 6
38 29 12
38 30 64
38 31 49
38 32 48
38 33 10
38 34 27
38 35 87
38 36 35
38 37 26
39 0 35
39 1 91
39 2 54
39 3 57
39 4 4
39 5 58
39 6 61
39 7 7
39 8 83
39 9 28
39 10 39
39 11 40
39 12 72
39 13 25
39 14 16
39 15 19
39 16 89
39 17 76
39 18 11
39 19 23
39 20 8
39 21 58
39 22 63
39 23 15
39 24 74
39 25 29
39 26 31
39 27 2
39 28 64
39 29 23
39 30 75
39 31 16
39 32 56
39 33 17
39 34 72
39 35 2
39 36 27
39 37 2
39 38 20
40 0 93
40 1 84
40 2 26
40 3 14
40 4 9
40 5 99
40 6 82
40 7 33
40 8 9
40 9 16
40 10 45
40 11 43
40 12 81
40 13 33
40 14 10
40 15 10
40 16 58
40 17 84
40 18 69
40 19 98
40 20 83
40 21 81
40 22 22
40 23 68
40 24 66
40 25 84
40 26 28
40 27 20
40 28 12
40 29 5
40 30 25
40 31 41
40 32 97
40 33 70
40 34 83
40 35 46
40 36 44
40 37 99
40 38 68
40 39 37
41 0 7
41 1 68
41 2 33
41 3 1
41 4 66
41 5 69
41 6 57
41 7 29
41 8 10
41 9 84
41 10 100
41 11 41
41 12 35
41 13 30
41 14 59
41 15 16
41 16 99
41 17 51
41 18 20
41 19 97
41 20 17
41 21 60
41 22 55
41 23 3
41 24 67
41 25 55
41 26 12
41 27 64
41 28 60
41 29 66
41 30 81
41 31 68
41 32 88
41 33 3
41 34 57
41 35 90
41 36 44
41 37 14
41 38 11
41 39 35
41 40 100
42 0 74
42 1 49
42 2 14
42 3 60
42 4 65
42 5 33
42 6 38
42 7 45
42 8 10
42 9 62
42 10 3
42 11 70
42 12 79
42 13 72
42 14 96
42 15 14
42 16 87
42 17 84
42 18 39
42 19 1
42 20 27
42 21 2
42 22 68
42 23 44
42 24 33
42 25 69
42 26 100
42 27 12
42 28 61
42 29 98
42 30 34
42 31 26
42 32 19
42 33 58
42 34 99
42 35 97
42 36 1
42 37 84
42 38 41
42 39 61
42 40 97
42 41 17
43 0 9
43 1 66
43 2 82
43 3 25
43 4 83
43 5 28
43 6 17
43 7 39
43 8 53
43 9 54
43 10 7
43 11 9
43 12 48
43 13 100
43 14 90
43 15 70
43 16 73
43 17 14
43 18 71
43 19 69
43 20 91
43 21 74
43 22 22
43 23 96
43 24 69
43 25 37
43 26 89
43 27 7
43 28 81
43 29 44
43 30 3
43 31 54
43 32 20
43 33 53
43 34 83
43 35 47
43 36 73
43 37 94
43 38 64
43 39 5
43 40 63
43 41 65
43 42 93
44 0 92
44 1 51
44 2 30
44 3 87
44 4 28
44 5 66
44 6 57
44 7 34
44 8 21
44 9 96
44 10 31
44 11 85
44 12 78
44 13 56
44 14 35
44 15 72
44 16 70
44 17 30
44 18 48
44 19 34
44 20 68
44 21 38
44 22 52
44 23 64
44 24 73
44 25 81
44 26 7
44 27 81
44 28 12
44 29 67
44 30 57
44 31 5
44 32 74
44 33 20
44 34 71
44 35 90
44 36 90
44 37 20
44 38 28
44 39 33
44 40 3
44 41 31
44 42 6
44 43 77
45 0 76
45 1 16
45 2 32
45 3 57
45 4 26
45 5 43
45 6 1
45 7 81
45 8 89
45 9 32
45 10 68
45 11 31
45 12 51
45 13 94
45 14 91
45 15 20
45 16 7
45 17 69
45 18 41
45 19 54
45 20 20
45 21 63
45 22 43
45 23 80
45 24 2
45 25 23
45 26 8
45 27 18
45 28 43
45 29 33
45 30 39
45 31 100
45 32 41
45 33 94
45 34 66
45 35 81
45 36 31
45 37 22
45 38 14
45 39 83
45 40 4
45 41 1
45 42 12
45 43 88
45 44 64
46 0 40
46 1 8
46 2 98
46 3 70
46 4 47
46 5 35
46 6 14
46 7 54
46 8 16
46 9 60
46 10 20
46 11 21
46 12 77
46 13 87
46 14 61
46 15 55
46 16 60
46 17 20
46 18 53
46 19 14
46 20 88
46 21 90
46 22 70
46 23 60
46 24 82
46 25 8
46 26 90
46 27 70
46 28 41
46 29 10
46 30 95
46 31 39
46 32 50
46 33 79
46 34 62
46 35 31
46 36 14
46 37 80
46 38 85
46 39 80
46 40 15
46 41 46
46 42 18
46 43 30
46 44 62
46 45 84
47 0 29
47 1 60
47 2 59
47 3 5
47 4 98
47 5 41
47 6 20
47 7 85
47 8 14
47 9 19
47 10 16
47 11 18
47 12 37
47 13 29
47 14 9
47 15 23
47 16 41
47 17 66
47 18 28
47 19 99
47 20 57
47 21 84
47 22 88
47 23 54
47 24 59
47 25 89
47 26 55
47 27 54
47 28 97
47 29 60
47 30 4
47 31 56
47 32 47
47 33 98
47 34 28
47 35 30
47 36 27
47 37 93
47 38 96
47 39 79
47 40 23
47 41 68
47 42 64
47 43 16
47 44 100
47 45 25
47 46 91
48 0 61
48 1 5
48 2 16
48 3 10
48 4 50
48 5 87
48 6 3
48 7 56
48 8 87
48 9 84
48 10 84
48 11 58
48 12 79
48 13 56
48 14 98
48 15 40
48 16 19
48 17 63
48 18 46
48 19 86
48 20 28
48 21 25
48 22 78
48 23 74
48 24 60
48 25 100
48 26 28
48 27 74
48 28 24
48 29 68
48 30 18
48 31 66
48 32 98
48 33 20
48 34 51
48 35 36
48 36 19
48 37 86
48 38 60
48 39 39
48 40 79
48 41 34
48 42 86
48 43 40
48 44 73
48 45 39
48 46 5
48 47 81
49 0 60
49 1 16
49 2 32
49 3 35
49 4 45
49 5 40
49 6 57
49 7 31
49 8 93
49 9 5
49 10 2
49 11 69
49 12 30
49 13 6
49 14 1
49 15 69
49 16 90
49 17 46
49 18 44
49 19 12
49 20 13
49 21 80
49 22 36
49 23 59
49 24 14
49 25 68
49 26 58
49 27 74
49 28 64
49 29 99
49 30 35
49 31 82
49 32 56
49 33 100
49 34 51
49 35 27
49 36 52
49 37 43
49 38 61
49 39 25
49 40 35
49 41 16
49 42 90
49 43 15
49 44 4
49 45 23
49 46 16
49 47 65
49 48 88
50 0 28
50 1 92
50 2 78
50 3 75
50 4 54
50 5 41
50 6 4
50 7 76
50 8 3
50 9 16
50 10 60
50 11 68
50 12 66
50 13 47
50 14 4
50 15 86
50 16 29
50 17 83
50 18 30
50 19 66
50 20 98
50 21 7
50 22 64
50 23 51
50 24 1
50 25 2
50 26 84
50 27 12
50 28 33
50 29 68
50 30 3
50 31 54
50 32 65
50 33 34
50 34 70
50 35 97
50 36 16
50 37 25
50 38 93
50 39 64
50 40 73
50 41 45
50 42 84
50 43 6
50 44 7
50 45 21
50 46 81
50 47 51
50 48 2
50 49 4
51 0 91
51 1 62
51 2 25
51 3 11
51 4 69
51 5 28
51 6 79
51 7 79
51 8 22
51 9 34
51 10 26
51 11 42
51 12 93
51 13 79
51 14 75
51 15 66
51 16 91
51 17 42
51 18 65
51 19 99
51 20 42
51 21 9
51 22 100
51 23 16
51 24 91
51 25 20
51 26 98
51 27 75
51 28 85
51 29 85
51 30 74
51 31 7
51 32 7
51 33 90
51 34 69
51 35 6
51 36 44
51 37 95
51 38 91
51 39 2
51 40 10
51 41 79
51 42 30
51 43 17
51 44 63
51 45 96
51 46 62
51 47 53
51 48 70
51 49 50
51 50 57
52 0 47
52 1 30
52 2 89
52 3 57
52 4 1
52 5 43
52 6 89
52 7 87
52 8 80
52 9 94
52 10 74
52 11 13
52 12 12
52 13 85
52 14 89
52 15 60
52 16 56
52 17 35
52 18 32
52 19 57
52 20 10
52 21 37
52 22 98
52 23 78
52 24 85
52 25 29
52 26 97
52 27 79
52 28 51
52 29 34
52 30 63
52 31 65
52 32 43
52 33 64
52 34 44
52 35 31
52 36 89
52 37 92
52 38 42
52 39 59
52 40 76
52 41 53
52 42 69
52 43 75
52 44 87
52 45 11
52 46 5
52 47 85
52 48 73
52 49 1
52 50 93
52 51 50
53 0 21
53 1 57
53 2 3
53 3 72
53 4 62
53 5 60
53 6 48
53 7 97
53 8 18
53 9 71
53 10 36
53 11 54
53 12 66
53 13 46
53 14 92
53 15 95
53 16 100
53 17 42
53 18 78
53 19 1
53 20 84
53 21 47
53 22 5
53 23 61
53 24 60
53 25 14
53 26 5
53 27 49
53 28 32
53 29 78
53 30 15
53 31 58
53 32 38
53 33 63
53 34 83
53 35 53
53 36 6
53 37 43
53 38 4
53 39 67
53 40 30
53 41 92
53 42 52
53 43 37
53 44 17
53 45 38
53 46 44
53 47 69
53 48 2
53 49 12
53 50 77
53 51 71
53 52 30
54 0 56
54 1 12
54 2 88
54 3 35
54 4 34
54 5 94
54 6 43
54 7 87
54 8 43
54 9 37
54 10 48
54 11 72
54 12 46
54 13 15
54 14 62
54 15 36
54 16 48
54 17 27
54 18 87
54 19 100
54 20 4
54 21 40
54 22 48
54 23 31
54 24 24
54 25 23
54 26 85
54 27 28
54 28 7
54 29 20
54 30 60
54 31 51
54 32 32
54 33 37
54 34 54
54 35 10
54 36 83
54 37 28
54 38 8
54 39 86
54 40 84
54 41 18
54 42 37
54 43 56
54 44 64
54 45 85
54 46 6
54 47 39
54 48 96
54 49 99
54 50 71
54 51 88
54 52 70
54 53 89
55 0 3
55 1 96
55 2 84
55 3 74
55 4 58
55 5 88
55 6 80
55 7 100
55 8 59
55 9 17
55 10 56
55 11 51
55 12 2
55 13 89
55 14 16
55 15 33
55 16 3
55 17 87
55 18 59
55 19 45
55 20 51
55 21 59
55 22 7
55 23 100
55 24 27
55 25 95
55 26 23
55 27 39
55 28 8
55 29 23
55 30 77
55 31 64
55 32 68
55 33 71
55 34 51
55 35 84
55 36 44
55 37 89
55 38 1
55 39 42
55 40 26
55 41 44
55 42 9
55 43 75
55 44 85
55 45 2
55 46 93
55 47 17
55 48 67
55 49 74
55 50 69
55 51 58
55 52 95
55 53 1
55 54 64
56 0 5
56 1 64
56 2 87
56 3 44
56 4 19
56 5 32
56 6 13
56 7 99
56 8 22
56 9 24
56 10 93
56 11 80
56 12 97
56 13 13
56 14 47
56 15 16
56 16 16
56 17 49
56 18 12
56 19 33
56 20 85
56 21 36
56 22 16
56 23 46
56 24 90
56 25 89
56 26 71
56 27 16
56 28 58
56 29 18
56 30 72
56 31 84
56 32 99
56 33 22
56 34 18
56 35 23
56 36 77
56 37 90
56 38 65
56 39 66
56 40 28
56 41 32
56 42 2
56 43 15
56 44 27
56 45 9
56 46 2
56 47 21
56 48 52
56 49 14
56 50 76
56 51 3
56 52 37
56 53 29
56 54 55
56 55 45
57 0 76
57 1 69
57 2 60
57 3 77
57 4 28
57 5 76
57 6 47
57 7 48
57 8 49
57 9 33
57 10 26
57 11 33
57 12 36
57 13 99
57 14 96
57 15 30
57 16 70
57 17 100
57 18 51
57 19 54
57 20 76
57 21 19
57 22 40
57 23 22
57 24 60
57 25 69
57 26 87
57 27 85
57 28 75
57 29 45
57 30 11
57 31 61
57 32 30
57 33 88
57 34 95
57 35 61
57 36 43
57 37 3
57 38 97
57 39 29
57 40 8
57 41 27
57 42 2
57 43 26
57 44 19
57 45 23
57 46 54
57 47 25
57 48 73
57 49 47
57 50 24
57 51 12
57 52 51
57 53 37
57 54 1
57 55 2
57 56 40
58 0 90
58 1 4
58 2 8
58 3 53
58 4 42
58 5 64
58 6 36
58 7 52
58 8 70
58 9 18
58 10 82
58 11 93
58 12 71
58 13 11
58 14 62
58 15 29
58 16 94
58 17 4
58 18 99
58 19 63
58 20 28
58 21 30
58 22 40
58 23 18
58 24 69
58 25 51
58 26 91
58 27 76
58 28 30
58 29 98
58 30 87
58 31 1
58 32 46
58 33 10
58 34 26
58 35 45
58 36 14
58 37 95
58 38 45
58 39 7
58 40 51
58 41 74
58 42 20
58 43 91
58 44 58
58 45 6
58 46 6
58 47 82
58 48 51
58 49 70
58 50 55
58 51 34
58 52 55
58 53 73
58 54 78
58 55 56
58 56 8
58 57 21
59 0 42
59 1 9
59 2 4
59 3 34
59 4 12
59 5 76
59 6 69
59 7 31
59 8 84
59 9 64
59 10 64
59 11 2
59 12 63
59 13 36
59 14 42
59 15 30
59 16 88
59 17 95
59 18 15
59 19 48
59 20 12
59 21 66
59 22 5
59 23 39
59 24 73
59 25 47
59 26 81
59 27 11
59 28 27
59 29 21
59 30 10
59 31 4
59 32 31
59 33 58
59 34 69
59 35 15
59 36 86
59 37 37
59 38 12
59 39 47
59 40 86
59 41 79
59 42 62
59 43 19
59 44 30
59 45 73
59 46 94
59 47 85
59 48 98
59 49 18
59 50 27
59 51 63
59 52 88
59 53 29
59 54 24
59 55 63
59 56 72
59 57 75
59 58 90
60 0 58
60 1 22
60 2 52
60 3 98
60 4 60
60 5 7
60 6 99
60 7 7
60 8 66
60 9 57
60 10 11
60 11 20
60 12 10
60 13 57
60 14 25
60 15 17
60 16 23
60 17 20
60 18 61
60 19 68
60 20 89
60 21 27
60 22 49
60 23 87
60 24 55
60 25 64
60 26 82
60 27 99
60 28 22
60 29 76
60 30 72
60 31 30
60 32 38
60 33 14
60 34 2
60 35 37
60 36 58
60 37 66
60 38 86
60 39 33
60 40 50
60 41 79
60 42 96
60 43 96
60 44 59
60 45 13
60 46 25
60 47 39
60 48 60
60 49 99
60 50 69
60 51 96
60 52 59
60 53 81
60 54 64
60 55 51
60 56 22
60 57 60
60 58 14
60 59 9
61 0 44
61 1 82
61 2 84
61 3 90
61 4 96
61 5 30
61 6 58
61 7 92
61 8 92
61 9 16
61 10 71
61 11 64
61 12 78
61 13 76
61 14 77
61 15 62
61 16 37
61 17 22
61 18 1
61 19 6
61 20 55
61 21 100
61 22 5
61 23 48
61 24 95
61 25 62
61 26 46
61 27 13
61 28 69
61 29 47
61 30 8
61 31 87
61 32 16
61 33 22
61 34 63
61 35 54
61 36 15
61 37 46
61 38 53
61 39 5
61 40 95
61 41 45
61 42 21
61 43 85
61 44 28
61 45 11
61 46 39
61 47 31
61 48 4
61 49 72
61 50 94
61 51 29
61 52 26
61 53 81
61 54 33
61 55 99
61 56 91
61 57 34
61 58 95
61 59 64
61 60 27
62 0 18
62 1 58
62 2 89
62 3 1
62 4 33
62 5 89
62 6 74
62 7 29
62 8 46
62 9 85
62 10 51
62 11 55
62 12 82
62 13 27
62 14 11
62 15 63
62 16 47
62 17 87
62 18 66
62 19 56
62 20 38
62 21 72
62 22 18
62 23 5
62 24 94
62 25 89
62 26 93
62 27 58
62 28 85
62 29 51
62 30 63
62 31 67
62 32 49
62 33 81
62 34 55
62 35 54
62 36 17
62 37 78
62 38 37
62 39 44
62 40 91
62 41 32
62 42 9
62 43 30
62 44 68
62 45 26
62 46 59
62 47 41
62 48 15
62 49 57
62 50 50
62 51 37
62 52 44
62 53 57
62 54 48
62 55 49
62 56 51
62 57 95
62 58 9
62 59 33
62 60 99
62 61 1
63 0 97
63 1 15
63 2 68
63 3 38
63 4 77
63 5 39
63 6 13
63 7 6
63 8 21
63 9 50
63 10 86
63 11 66
63 12 25
63 13 66
63 14 20
63 15 14
63 16 6
63 17 33
63 18 80
63 19 35
63 20 52
63 21 57
63 22 33
63 23 28
63 24 23
63 25 58
63 26 90
63 27 77
63 28 29
63 29 97
63 30 16
63 31 3
63 32 52
63 33 67
63 34 18
63 35 44
63 36 66
63 37 41
63 38 57
63 39 15
63 40 73
63 41 35
63 42 42
63 43 69
63 44 80
63 45 12
63 46 94
63 47 62
63 48 61
63 49 43
63 50 7
63 51 72
63 52 90
63 53 9
63 54 28
63 55 48
63 56 43
63 57 90
63 58 37
63 59 78
63 60 98
63 61 94
63 62 100
64 0 97
64 1 75
64 2 8
64 3 25
64 4 87
64 5 12
64 6 87
64 7 53
64 8 37
64 9 65
64 10 5
64 11 43
64 12 50
64 13 54
64 14 32
64 15 53
64 16 31
64 17 26
64 18 14
64 19 23
64 20 97
64 21 96
64 22 79
64 23 2
64 24 72
64 25 72
64 26 78
64 27 76
64 28 77
64 29 95
64 30 41
64 31 5
64 32 19
64 33 40
64 34 26
64 35 64
64 36 44
64 37 58
64 38 55
64 39 33
64 40 7
64 41 64
64 42 97
64 43 12
64 44 60
64 45 90
64 46 24
64 47 32
64 48 90
64 49 64
64 50 55
64 51 90
64 52 37
64 53 85
64 54 69
64 55 39
64 56 65
64 57 97
64 58 40
64 59 12
64 60 99
64 61 98
64 62 47
64 63 40
65 0 21
65 1 17
65 2 24
65 3 19
65 4 95
65 5 58
65 6 96
65 7 26
65 8 74
65 9 97
65 10 95
65 11 78
65 12 6
65 13 65
65 14 38
65 15 5
65 16 28
65 17 67
65 18 47
65 19 60
65 20 28
65 21 19
65 22 5
65 23 6
65 24 19
65 25 1
65 26 5
65 27 37
65 28 39
65 29 46
65 30 26
65 31 33
65 32 86
65 33 33
65 34 42
65 35 56
65 36 37
65 37 48
65 38 44
65 39 24
65 40 25
65 41 18
65 42 44
65 43 40
65 44 70
65 45 49
65 46 86
65 47 48
65 48 73
65 49 14
65 50 64
65 51 52
65 52 35
65 53 73
65 54 60
65 55 10
65 56 66
65 57 23
65 58 16
65 59 97
65 60 70
65 61 8
65 62 19
65 63 1
65 64 39
66 0 40
66 1 67
66 2 86
66 3 4
66 4 6
66 5 37
66 6 47
66 7 94
66 8 69
66 9 71
66 10 30
66 11 21
66 12 75
66 13 59
66 14 7
66 15 4
66 16 46
66 17 88
66 18 9
66 19 65
66 20 99
66 21 64
66 22 73
66 23 96
66 24 27
66 25 57
66 26 56
66 27 60
66 28 47
66 29 100
66 30 9
66 31 69
66 32 80
66 33 54
66 34 27
66 35 81
66 36 25
66 37 28
66 38 5
66 39 79
66 40 50
66 41 93
66 42 86
66 43 34
66 44 5
66 45 47
66 46 62
66 47 70
66 48 25
66 49 22
66 50 68
66 51 83
66 52 93
66 53 24
66 54 89
66 55 72
66 56 66
66 57 62
66 58 62
66 59 92
66 60 88
66 61 99
66 62 44
66 63 39
66 64 53
66 65 35
67 0 75
67 1 17
67 2 73
67 3 4
67 4 71
67 5 61
67 6 86
67 7 38
67 8 9
67 9 1
67 10 91
67 11 50
67 12 93
67 13 5
67 14 1
67 15 9
67 16 24
67 17 26
67 18 61
67 19 35
67 20 98
67 21 44
67 22 49
67 23 32
67 24 14
67 25 77
67 26 81
67 27 16
67 28 72
67 29 7
67 30 77
67 31 40
67 32 66
67 33 44
67 34 60
67 35 98
67 36 40
67 37 14
67 38 85
67 39 61
67 40 35
67 41 52
67 42 46
67 43 94
67 44 47
67 45 42
67 46 81
67 47 45
67 48 97
67 49 25
67 50 85
67 51 99
67 52 43
67 53 66
67 54 5
67 55 51
67 56 26
67 57 65
67 58 65
67 59 35
67 60 9
67 61 35
67 62 61
67 63 13
67 64 45
67 65 91
67 66 3
68 0 11
68 1 98
68 2 26
68 3 13
68 4 55
68 5 97
68 6 69
68 7 6
68 8 51
68 9 2
68 10 30
68 11 89
68 12 97
68 13 95
68 14 11
68 15 85
68 16 40
68 17 43
68 18 13
68 19 50
68 20 2
68 21 92
68 22 71
68 23 41
68 24 40
68 25 88
68 26 12
68 27 64
68 28 21
68 29 27
68 30 98
68 31 94
68 32 19
68 33 86
68 34 13
68 35 53
68 36 71
68 37 94
68 38 97
68 39 98
68 40 47
68 41 33
68 42 50
68 43 37
68 44 16
68 45 84
68 46 38
68 47 90
68 48 19
68 49 54
68 50 93
68 51 51
68 52 84
68 53 54
68 54 79
68 55 28
68 56 33
68 57 18
68 58 65
68 59 65
68 60 78
68 61 66
68 62 37
68 63 64
68 64 95
68 65 67
68 66 30
68 67 74
69 0 32
69 1 51
69 2 67
69 3 3
69 4 86
69 5 77
69 6 27
69 7 87
69 8 55
69 9 49
69 10 97
69 11 99
69 12 50
69 13 37
69 14 67
69 15 94
69 16 22
69 17 67
69 18 67
69 19 36
69 20 46
69 21 56
69 22 74
69 23 27
69 24 55
69 25 21
69 26 21
69 27 49
69 28 24
69 29 91
69 30 95
69 31 93
69 32 48
69 33 93
69 34 6
69 35 25
69 36 60
69 37 2
69 38 52
69 39 19
69 40 82
69 41 61
69 42 31
69 43 50
69 44 15
69 45 22
69 46 61
69 47 48
69 48 89
69 49 62
69 50 18
69 51 28
69 52 59
69 53 70
69 54 91
69 55 61
69 56 97
69 57 20
69 58 24
69 59 53
69 60 15
69 61 61
69 62 98
69 63 47
69 64 32
69 65 1
69 66 57
69 67 55
69 68 65
70 0 66
70 1 93
70 2 93
70 3 100
70 4 45
70 5 48
70 6 84
70 7 80
70 8 75
70 9 84
70 10 30
70 11 19
70 12 15
70 13 35
70 14 88
70 15 15
70 16 3
70 17 54
70 18 95
70 19 42
70 20 23
70 21 97
70 22 21
70 23 20
70 24 96
70 25 19
70 26 51
70 27 18
70 28 86
70 29 88
70 30 33
70 31 20
70 32 90
70 33 10
70 34 19
70 35 57
70 36 44
70 37 41
70 38 9
70 39 13
70 40 64
70 41 40
70 42 72
70 43 23
70 44 11
70 45 60
70 46 84
70 47 37
70 48 43
70 49 2
70 50 38
70 51 29
70 52 96
70 53 78
70 54 93
70 55 49
70 56 3
70 57 44
70 58 70
70 59 73
70 60 49
70 61 17
70 62 21
70 63 79
70 64 20
70 65 75
70 66 22
70 67 66
70 68 82
70 69 3
71 0 71
71 1 95
71 2 22
71 3 50
71 4 86
71 5 3
71 6 9
71 7 86
71 8 34
71 9 40
71 10 85
71 11 91
71 12 44
71 13 22
71 14 66
71 15 15
71 16 82
71 17 86
71 18 35
71 19 79
71 20 81
71 21 13
71 22 50
71 23 19
71 24 63
71 25 50
71 26 91
71 27 82
71 28 4
71 29 19
71 30 35
71 31 39
71 32 13
71 33 39
71 34 14
71 35 62
71 36 31
71 37 70
71 38 11
71 39 76
71 40 74
71 41 51
71 42 96
71 43 11
71 44 81
71 45 20
71 46 96
71 47 78
71 48 32
71 49 100
71 50 60
71 51 68
71 52 39
71 53 23
71 54 71
71 55 45
71 56 52
71 57 6
71 58 96
71 59 69
71 60 13
71 61 2
71 62 92
71 63 86
71 64 45
71 65 5
71 66 5
71 67 67
71 68 75
71 69 58
71 70 23
72 0 76
72 1 22
72 2 22
72 3 86
72 4 97
72 5 95
72 6 75
72 7 45
72 8 73
72 9 83
72 10 70
72 11 30
72 12 7
72 13 43
72 14 66
72 15 84
72 16 42
72 17 96
72 18 6
72 19 50
72 20 28
72 21 8
72 22 12
72 23 23
72 24 26
72 25 8
72 26 13
72 27 21
72 28 20
72 29 66
72 30 41
72 31 23
72 32 31
72 33 43
72 34 45
72 35 67
72 36 53
72 37 72
72 38 8
72 39 34
72 40 61
72 41 44
72 42 90
72 43 40
72 44 59
72 45 4
72 46 4
72 47 16
72 48 58
72 49 85
72 50 6
72 51 55
72 52 22
72 53 23
72 54 71
72 55 43
72 56 1
72 57 39
72 58 64
72 59 21
72 60 48
72 61 92
72 62 48
72 63 27
72 64 3
72 65 17
72 66 70
72 67 23
72 68 59
72 69 11
72 70 23
72 71 15
73 0 72
73 1 49
73 2 94
73 3 99
73 4 71
73 5 6
73 6 12
73 7 12
73 8 70
73 9 53
73 10 78
73 11 67
73 12 5
73 13 35
73 14 44
73 15 80
73 16 32
73 17 40
73 18 52
73 19 55
73 20 72
73 21 51
73 22 78
73 23 53
73 24 83
73 25 100
73 26 19
73 27 73
73 28 91
73 29 85
73 30 23
73 31 32
73 32 20
73 33 30
73 34 64
73 35 92
73 36 90
73 37 77
73 38 92
73 39 6
73 40 91
73 41 48
73 42 24
73 43 61
73 44 31
73 45 28
73 46 52
73 47 39
73 48 31
73 49 40
73 50 78
73 51 34
73 52 18
73 53 15
73 54 15
73 55 88
73 56 10
73 57 95
73 58 3
73 59 39
73 60 38
73 61 5
73 62 27
73 63 91
73 64 20
73 65 80
73 66 51
73 67 49
73 68 78
73 69 47
73 70 91
73 71 80
73 72 86
74 0 93
74 1 91
74 2 97
74 3 73
74 4 60
74 5 89
74 6 67
74 7 20
74 8 60
74 9 69
74 10 97
74 11 35
74 12 93
74 13 47
74 14 55
74 15 83
74 16 15
74 17 35
74 18 11
74 19 12
74 20 91
74 21 83
74 22 24
74 23 3
74 24 18
74 25 87
74 26 8
74 27 25
74 28 24
74 29 14
74 30 36
74 31 95
74 32 56
74 33 89
74 34 84
74 35 40
74 36 27
74 37 39
74 38 20
74 39 44
74 40 83
74 41 94
74 42 74
74 43 13
74 44 2
74 45 77
74 46 75
74 47 82
74 48 48
74 49 49
74 50 9
74 51 70
74 52 32
74 53 87
74 54 52
74 55 31
74 56 55
74 57 5
74 58 81
74 59 71
74 60 49
74 61 43
74 62 57
74 63 39
74 64 13
74 65 3
74 66 49
74 67 90
74 68 29
74 69 89
74 70 27
74 71 85
74 72 17
74 73 76
